Route #1: 43 47 15 4 32 35 52 3 17 40 7 53 25 29 19 2 44 50
Route #2: 33 11 48 39 41 16 12 54 36 10
Route #3: 
Route #4: 30 51 49 46 45 24
Route #5: 13 22 6
Route #6: 
Route #7: 9 26 1 5 8 31
Route #8: 
Route #9: 42 20 14 28 55 23 37 27 38 34 18 21
cost 1377.5203507412193
